(declare-const x0c0 Int)
(assert (>= x0c0 0))
(assert (<= x0c0 1))
(declare-const x0c1 Int)
(assert (>= x0c1 0))
(assert (<= x0c1 1))
(declare-const x0c2 Int)
(assert (>= x0c2 0))
(assert (<= x0c2 1))
(declare-const x0c3 Int)
(assert (>= x0c3 0))
(assert (<= x0c3 1))
(declare-const x0c4 Int)
(assert (>= x0c4 0))
(assert (<= x0c4 1))
(declare-const x0c5 Int)
(assert (>= x0c5 0))
(assert (<= x0c5 1))
(assert (= 1 (+ x0c0 x0c1 x0c2 x0c3 x0c4 x0c5)))
(declare-const x1c0 Int)
(assert (>= x1c0 0))
(assert (<= x1c0 1))
(declare-const x1c1 Int)
(assert (>= x1c1 0))
(assert (<= x1c1 1))
(declare-const x1c2 Int)
(assert (>= x1c2 0))
(assert (<= x1c2 1))
(declare-const x1c3 Int)
(assert (>= x1c3 0))
(assert (<= x1c3 1))
(declare-const x1c4 Int)
(assert (>= x1c4 0))
(assert (<= x1c4 1))
(declare-const x1c5 Int)
(assert (>= x1c5 0))
(assert (<= x1c5 1))
(assert (= 1 (+ x1c0 x1c1 x1c2 x1c3 x1c4 x1c5)))
(declare-const x2c0 Int)
(assert (>= x2c0 0))
(assert (<= x2c0 1))
(declare-const x2c1 Int)
(assert (>= x2c1 0))
(assert (<= x2c1 1))
(declare-const x2c2 Int)
(assert (>= x2c2 0))
(assert (<= x2c2 1))
(declare-const x2c3 Int)
(assert (>= x2c3 0))
(assert (<= x2c3 1))
(declare-const x2c4 Int)
(assert (>= x2c4 0))
(assert (<= x2c4 1))
(declare-const x2c5 Int)
(assert (>= x2c5 0))
(assert (<= x2c5 1))
(assert (= 1 (+ x2c0 x2c1 x2c2 x2c3 x2c4 x2c5)))
(declare-const x3c0 Int)
(assert (>= x3c0 0))
(assert (<= x3c0 1))
(declare-const x3c1 Int)
(assert (>= x3c1 0))
(assert (<= x3c1 1))
(declare-const x3c2 Int)
(assert (>= x3c2 0))
(assert (<= x3c2 1))
(declare-const x3c3 Int)
(assert (>= x3c3 0))
(assert (<= x3c3 1))
(declare-const x3c4 Int)
(assert (>= x3c4 0))
(assert (<= x3c4 1))
(declare-const x3c5 Int)
(assert (>= x3c5 0))
(assert (<= x3c5 1))
(assert (= 1 (+ x3c0 x3c1 x3c2 x3c3 x3c4 x3c5)))
(declare-const x4c0 Int)
(assert (>= x4c0 0))
(assert (<= x4c0 1))
(declare-const x4c1 Int)
(assert (>= x4c1 0))
(assert (<= x4c1 1))
(declare-const x4c2 Int)
(assert (>= x4c2 0))
(assert (<= x4c2 1))
(declare-const x4c3 Int)
(assert (>= x4c3 0))
(assert (<= x4c3 1))
(declare-const x4c4 Int)
(assert (>= x4c4 0))
(assert (<= x4c4 1))
(declare-const x4c5 Int)
(assert (>= x4c5 0))
(assert (<= x4c5 1))
(assert (= 1 (+ x4c0 x4c1 x4c2 x4c3 x4c4 x4c5)))
(declare-const x5c0 Int)
(assert (>= x5c0 0))
(assert (<= x5c0 1))
(declare-const x5c1 Int)
(assert (>= x5c1 0))
(assert (<= x5c1 1))
(declare-const x5c2 Int)
(assert (>= x5c2 0))
(assert (<= x5c2 1))
(declare-const x5c3 Int)
(assert (>= x5c3 0))
(assert (<= x5c3 1))
(declare-const x5c4 Int)
(assert (>= x5c4 0))
(assert (<= x5c4 1))
(declare-const x5c5 Int)
(assert (>= x5c5 0))
(assert (<= x5c5 1))
(assert (= 1 (+ x5c0 x5c1 x5c2 x5c3 x5c4 x5c5)))
(declare-const x6c0 Int)
(assert (>= x6c0 0))
(assert (<= x6c0 1))
(declare-const x6c1 Int)
(assert (>= x6c1 0))
(assert (<= x6c1 1))
(declare-const x6c2 Int)
(assert (>= x6c2 0))
(assert (<= x6c2 1))
(declare-const x6c3 Int)
(assert (>= x6c3 0))
(assert (<= x6c3 1))
(declare-const x6c4 Int)
(assert (>= x6c4 0))
(assert (<= x6c4 1))
(declare-const x6c5 Int)
(assert (>= x6c5 0))
(assert (<= x6c5 1))
(assert (= 1 (+ x6c0 x6c1 x6c2 x6c3 x6c4 x6c5)))
(declare-const x7c0 Int)
(assert (>= x7c0 0))
(assert (<= x7c0 1))
(declare-const x7c1 Int)
(assert (>= x7c1 0))
(assert (<= x7c1 1))
(declare-const x7c2 Int)
(assert (>= x7c2 0))
(assert (<= x7c2 1))
(declare-const x7c3 Int)
(assert (>= x7c3 0))
(assert (<= x7c3 1))
(declare-const x7c4 Int)
(assert (>= x7c4 0))
(assert (<= x7c4 1))
(declare-const x7c5 Int)
(assert (>= x7c5 0))
(assert (<= x7c5 1))
(assert (= 1 (+ x7c0 x7c1 x7c2 x7c3 x7c4 x7c5)))
(declare-const x8c0 Int)
(assert (>= x8c0 0))
(assert (<= x8c0 1))
(declare-const x8c1 Int)
(assert (>= x8c1 0))
(assert (<= x8c1 1))
(declare-const x8c2 Int)
(assert (>= x8c2 0))
(assert (<= x8c2 1))
(declare-const x8c3 Int)
(assert (>= x8c3 0))
(assert (<= x8c3 1))
(declare-const x8c4 Int)
(assert (>= x8c4 0))
(assert (<= x8c4 1))
(declare-const x8c5 Int)
(assert (>= x8c5 0))
(assert (<= x8c5 1))
(assert (= 1 (+ x8c0 x8c1 x8c2 x8c3 x8c4 x8c5)))
(declare-const x9c0 Int)
(assert (>= x9c0 0))
(assert (<= x9c0 1))
(declare-const x9c1 Int)
(assert (>= x9c1 0))
(assert (<= x9c1 1))
(declare-const x9c2 Int)
(assert (>= x9c2 0))
(assert (<= x9c2 1))
(declare-const x9c3 Int)
(assert (>= x9c3 0))
(assert (<= x9c3 1))
(declare-const x9c4 Int)
(assert (>= x9c4 0))
(assert (<= x9c4 1))
(declare-const x9c5 Int)
(assert (>= x9c5 0))
(assert (<= x9c5 1))
(assert (= 1 (+ x9c0 x9c1 x9c2 x9c3 x9c4 x9c5)))
(declare-const x10c0 Int)
(assert (>= x10c0 0))
(assert (<= x10c0 1))
(declare-const x10c1 Int)
(assert (>= x10c1 0))
(assert (<= x10c1 1))
(declare-const x10c2 Int)
(assert (>= x10c2 0))
(assert (<= x10c2 1))
(declare-const x10c3 Int)
(assert (>= x10c3 0))
(assert (<= x10c3 1))
(declare-const x10c4 Int)
(assert (>= x10c4 0))
(assert (<= x10c4 1))
(declare-const x10c5 Int)
(assert (>= x10c5 0))
(assert (<= x10c5 1))
(assert (= 1 (+ x10c0 x10c1 x10c2 x10c3 x10c4 x10c5)))
(assert (>= 1 (+ x1c0 x0c0)))
(assert (>= 1 (+ x1c1 x0c1)))
(assert (>= 1 (+ x1c2 x0c2)))
(assert (>= 1 (+ x1c3 x0c3)))
(assert (>= 1 (+ x1c4 x0c4)))
(assert (>= 1 (+ x2c0 x1c0)))
(assert (>= 1 (+ x2c0 x0c0)))
(assert (>= 1 (+ x2c1 x1c1)))
(assert (>= 1 (+ x2c1 x0c1)))
(assert (>= 1 (+ x2c2 x1c2)))
(assert (>= 1 (+ x2c2 x0c2)))
(assert (>= 1 (+ x2c3 x1c3)))
(assert (>= 1 (+ x2c3 x0c3)))
(assert (>= 1 (+ x2c4 x1c4)))
(assert (>= 1 (+ x2c4 x0c4)))
(assert (>= 2 (+ x2c5 x1c5 x0c5)))
(assert (>= 1 (+ x3c0 x2c0)))
(assert (>= 1 (+ x3c0 x1c0)))
(assert (>= 1 (+ x3c0 x0c0)))
(assert (>= 1 (+ x3c1 x2c1)))
(assert (>= 1 (+ x3c1 x1c1)))
(assert (>= 1 (+ x3c1 x0c1)))
(assert (>= 1 (+ x3c2 x2c2)))
(assert (>= 1 (+ x3c2 x1c2)))
(assert (>= 1 (+ x3c2 x0c2)))
(assert (>= 1 (+ x3c3 x2c3)))
(assert (>= 1 (+ x3c3 x1c3)))
(assert (>= 1 (+ x3c3 x0c3)))
(assert (>= 1 (+ x3c4 x2c4)))
(assert (>= 1 (+ x3c4 x1c4)))
(assert (>= 1 (+ x3c4 x0c4)))
(assert (>= 2 (+ x3c5 x2c5 x1c5)))
(assert (>= 1 (+ x4c0 x3c0)))
(assert (>= 1 (+ x4c0 x2c0)))
(assert (>= 1 (+ x4c0 x1c0)))
(assert (>= 1 (+ x4c0 x0c0)))
(assert (>= 1 (+ x4c1 x3c1)))
(assert (>= 1 (+ x4c1 x2c1)))
(assert (>= 1 (+ x4c1 x1c1)))
(assert (>= 1 (+ x4c1 x0c1)))
(assert (>= 1 (+ x4c2 x3c2)))
(assert (>= 1 (+ x4c2 x2c2)))
(assert (>= 1 (+ x4c2 x1c2)))
(assert (>= 1 (+ x4c2 x0c2)))
(assert (>= 1 (+ x4c3 x3c3)))
(assert (>= 1 (+ x4c3 x2c3)))
(assert (>= 1 (+ x4c3 x1c3)))
(assert (>= 1 (+ x4c3 x0c3)))
(assert (>= 1 (+ x4c4 x3c4)))
(assert (>= 1 (+ x4c4 x2c4)))
(assert (>= 1 (+ x4c4 x1c4)))
(assert (>= 1 (+ x4c4 x0c4)))
(assert (>= 2 (+ x4c5 x3c5 x2c5)))
(assert (>= 2 (+ x4c5 x2c5 x0c5)))
(assert (>= 1 (+ x5c0 x4c0)))
(assert (>= 1 (+ x5c0 x3c0)))
(assert (>= 1 (+ x5c0 x2c0)))
(assert (>= 1 (+ x5c0 x1c0)))
(assert (>= 1 (+ x5c0 x0c0)))
(assert (>= 1 (+ x5c1 x4c1)))
(assert (>= 1 (+ x5c1 x3c1)))
(assert (>= 1 (+ x5c1 x2c1)))
(assert (>= 1 (+ x5c1 x1c1)))
(assert (>= 1 (+ x5c1 x0c1)))
(assert (>= 1 (+ x5c2 x4c2)))
(assert (>= 1 (+ x5c2 x3c2)))
(assert (>= 1 (+ x5c2 x2c2)))
(assert (>= 1 (+ x5c2 x1c2)))
(assert (>= 1 (+ x5c2 x0c2)))
(assert (>= 1 (+ x5c3 x4c3)))
(assert (>= 1 (+ x5c3 x3c3)))
(assert (>= 1 (+ x5c3 x2c3)))
(assert (>= 1 (+ x5c3 x1c3)))
(assert (>= 1 (+ x5c3 x0c3)))
(assert (>= 1 (+ x5c4 x4c4)))
(assert (>= 1 (+ x5c4 x3c4)))
(assert (>= 1 (+ x5c4 x2c4)))
(assert (>= 1 (+ x5c4 x1c4)))
(assert (>= 1 (+ x5c4 x0c4)))
(assert (>= 2 (+ x5c5 x4c5 x3c5)))
(assert (>= 2 (+ x5c5 x3c5 x1c5)))
(assert (>= 1 (+ x6c0 x5c0)))
(assert (>= 1 (+ x6c0 x4c0)))
(assert (>= 1 (+ x6c0 x3c0)))
(assert (>= 1 (+ x6c0 x2c0)))
(assert (>= 1 (+ x6c0 x1c0)))
(assert (>= 1 (+ x6c0 x0c0)))
(assert (>= 1 (+ x6c1 x5c1)))
(assert (>= 1 (+ x6c1 x4c1)))
(assert (>= 1 (+ x6c1 x3c1)))
(assert (>= 1 (+ x6c1 x2c1)))
(assert (>= 1 (+ x6c1 x1c1)))
(assert (>= 1 (+ x6c1 x0c1)))
(assert (>= 1 (+ x6c2 x5c2)))
(assert (>= 1 (+ x6c2 x4c2)))
(assert (>= 1 (+ x6c2 x3c2)))
(assert (>= 1 (+ x6c2 x2c2)))
(assert (>= 1 (+ x6c2 x1c2)))
(assert (>= 1 (+ x6c2 x0c2)))
(assert (>= 1 (+ x6c3 x5c3)))
(assert (>= 1 (+ x6c3 x4c3)))
(assert (>= 1 (+ x6c3 x3c3)))
(assert (>= 1 (+ x6c3 x2c3)))
(assert (>= 1 (+ x6c3 x1c3)))
(assert (>= 1 (+ x6c3 x0c3)))
(assert (>= 1 (+ x6c4 x5c4)))
(assert (>= 1 (+ x6c4 x4c4)))
(assert (>= 1 (+ x6c4 x3c4)))
(assert (>= 1 (+ x6c4 x2c4)))
(assert (>= 1 (+ x6c4 x1c4)))
(assert (>= 1 (+ x6c4 x0c4)))
(assert (>= 2 (+ x6c5 x5c5 x4c5)))
(assert (>= 2 (+ x6c5 x4c5 x2c5)))
(assert (>= 2 (+ x6c5 x3c5 x0c5)))
(assert (>= 1 (+ x7c0 x6c0)))
(assert (>= 1 (+ x7c0 x5c0)))
(assert (>= 1 (+ x7c0 x4c0)))
(assert (>= 1 (+ x7c0 x3c0)))
(assert (>= 1 (+ x7c0 x2c0)))
(assert (>= 1 (+ x7c0 x1c0)))
(assert (>= 1 (+ x7c0 x0c0)))
(assert (>= 1 (+ x7c1 x6c1)))
(assert (>= 1 (+ x7c1 x5c1)))
(assert (>= 1 (+ x7c1 x4c1)))
(assert (>= 1 (+ x7c1 x3c1)))
(assert (>= 1 (+ x7c1 x2c1)))
(assert (>= 1 (+ x7c1 x1c1)))
(assert (>= 1 (+ x7c1 x0c1)))
(assert (>= 1 (+ x7c2 x6c2)))
(assert (>= 1 (+ x7c2 x5c2)))
(assert (>= 1 (+ x7c2 x4c2)))
(assert (>= 1 (+ x7c2 x3c2)))
(assert (>= 1 (+ x7c2 x2c2)))
(assert (>= 1 (+ x7c2 x1c2)))
(assert (>= 1 (+ x7c2 x0c2)))
(assert (>= 1 (+ x7c3 x6c3)))
(assert (>= 1 (+ x7c3 x5c3)))
(assert (>= 1 (+ x7c3 x4c3)))
(assert (>= 1 (+ x7c3 x3c3)))
(assert (>= 1 (+ x7c3 x2c3)))
(assert (>= 1 (+ x7c3 x1c3)))
(assert (>= 1 (+ x7c3 x0c3)))
(assert (>= 1 (+ x7c4 x6c4)))
(assert (>= 1 (+ x7c4 x5c4)))
(assert (>= 1 (+ x7c4 x4c4)))
(assert (>= 1 (+ x7c4 x3c4)))
(assert (>= 1 (+ x7c4 x2c4)))
(assert (>= 1 (+ x7c4 x1c4)))
(assert (>= 1 (+ x7c4 x0c4)))
(assert (>= 2 (+ x7c5 x6c5 x5c5)))
(assert (>= 2 (+ x7c5 x5c5 x3c5)))
(assert (>= 2 (+ x7c5 x4c5 x1c5)))
(assert (>= 1 (+ x8c0 x7c0)))
(assert (>= 1 (+ x8c0 x6c0)))
(assert (>= 1 (+ x8c0 x5c0)))
(assert (>= 1 (+ x8c0 x4c0)))
(assert (>= 1 (+ x8c0 x3c0)))
(assert (>= 1 (+ x8c0 x2c0)))
(assert (>= 1 (+ x8c0 x1c0)))
(assert (>= 1 (+ x8c0 x0c0)))
(assert (>= 1 (+ x8c1 x7c1)))
(assert (>= 1 (+ x8c1 x6c1)))
(assert (>= 1 (+ x8c1 x5c1)))
(assert (>= 1 (+ x8c1 x4c1)))
(assert (>= 1 (+ x8c1 x3c1)))
(assert (>= 1 (+ x8c1 x2c1)))
(assert (>= 1 (+ x8c1 x1c1)))
(assert (>= 1 (+ x8c1 x0c1)))
(assert (>= 1 (+ x8c2 x7c2)))
(assert (>= 1 (+ x8c2 x6c2)))
(assert (>= 1 (+ x8c2 x5c2)))
(assert (>= 1 (+ x8c2 x4c2)))
(assert (>= 1 (+ x8c2 x3c2)))
(assert (>= 1 (+ x8c2 x2c2)))
(assert (>= 1 (+ x8c2 x1c2)))
(assert (>= 1 (+ x8c2 x0c2)))
(assert (>= 1 (+ x8c3 x7c3)))
(assert (>= 1 (+ x8c3 x6c3)))
(assert (>= 1 (+ x8c3 x5c3)))
(assert (>= 1 (+ x8c3 x4c3)))
(assert (>= 1 (+ x8c3 x3c3)))
(assert (>= 1 (+ x8c3 x2c3)))
(assert (>= 1 (+ x8c3 x1c3)))
(assert (>= 1 (+ x8c3 x0c3)))
(assert (>= 1 (+ x8c4 x7c4)))
(assert (>= 1 (+ x8c4 x6c4)))
(assert (>= 1 (+ x8c4 x5c4)))
(assert (>= 1 (+ x8c4 x4c4)))
(assert (>= 1 (+ x8c4 x3c4)))
(assert (>= 1 (+ x8c4 x2c4)))
(assert (>= 1 (+ x8c4 x1c4)))
(assert (>= 1 (+ x8c4 x0c4)))
(assert (>= 2 (+ x8c5 x7c5 x6c5)))
(assert (>= 2 (+ x8c5 x6c5 x4c5)))
(assert (>= 2 (+ x8c5 x5c5 x2c5)))
(assert (>= 2 (+ x8c5 x4c5 x0c5)))
(assert (>= 1 (+ x9c0 x8c0)))
(assert (>= 1 (+ x9c0 x7c0)))
(assert (>= 1 (+ x9c0 x6c0)))
(assert (>= 1 (+ x9c0 x5c0)))
(assert (>= 1 (+ x9c0 x4c0)))
(assert (>= 1 (+ x9c0 x3c0)))
(assert (>= 1 (+ x9c0 x2c0)))
(assert (>= 1 (+ x9c0 x1c0)))
(assert (>= 1 (+ x9c0 x0c0)))
(assert (>= 1 (+ x9c1 x8c1)))
(assert (>= 1 (+ x9c1 x7c1)))
(assert (>= 1 (+ x9c1 x6c1)))
(assert (>= 1 (+ x9c1 x5c1)))
(assert (>= 1 (+ x9c1 x4c1)))
(assert (>= 1 (+ x9c1 x3c1)))
(assert (>= 1 (+ x9c1 x2c1)))
(assert (>= 1 (+ x9c1 x1c1)))
(assert (>= 1 (+ x9c1 x0c1)))
(assert (>= 1 (+ x9c2 x8c2)))
(assert (>= 1 (+ x9c2 x7c2)))
(assert (>= 1 (+ x9c2 x6c2)))
(assert (>= 1 (+ x9c2 x5c2)))
(assert (>= 1 (+ x9c2 x4c2)))
(assert (>= 1 (+ x9c2 x3c2)))
(assert (>= 1 (+ x9c2 x2c2)))
(assert (>= 1 (+ x9c2 x1c2)))
(assert (>= 1 (+ x9c2 x0c2)))
(assert (>= 1 (+ x9c3 x8c3)))
(assert (>= 1 (+ x9c3 x7c3)))
(assert (>= 1 (+ x9c3 x6c3)))
(assert (>= 1 (+ x9c3 x5c3)))
(assert (>= 1 (+ x9c3 x4c3)))
(assert (>= 1 (+ x9c3 x3c3)))
(assert (>= 1 (+ x9c3 x2c3)))
(assert (>= 1 (+ x9c3 x1c3)))
(assert (>= 1 (+ x9c3 x0c3)))
(assert (>= 1 (+ x9c4 x8c4)))
(assert (>= 1 (+ x9c4 x7c4)))
(assert (>= 1 (+ x9c4 x6c4)))
(assert (>= 1 (+ x9c4 x5c4)))
(assert (>= 1 (+ x9c4 x4c4)))
(assert (>= 1 (+ x9c4 x3c4)))
(assert (>= 1 (+ x9c4 x2c4)))
(assert (>= 1 (+ x9c4 x1c4)))
(assert (>= 1 (+ x9c4 x0c4)))
(assert (>= 2 (+ x9c5 x8c5 x7c5)))
(assert (>= 2 (+ x9c5 x7c5 x5c5)))
(assert (>= 2 (+ x9c5 x6c5 x3c5)))
(assert (>= 2 (+ x9c5 x5c5 x1c5)))
(assert (>= 1 (+ x10c0 x9c0)))
(assert (>= 1 (+ x10c0 x8c0)))
(assert (>= 1 (+ x10c0 x7c0)))
(assert (>= 1 (+ x10c0 x6c0)))
(assert (>= 1 (+ x10c0 x5c0)))
(assert (>= 1 (+ x10c0 x4c0)))
(assert (>= 1 (+ x10c0 x3c0)))
(assert (>= 1 (+ x10c0 x2c0)))
(assert (>= 1 (+ x10c0 x1c0)))
(assert (>= 1 (+ x10c0 x0c0)))
(assert (>= 1 (+ x10c1 x9c1)))
(assert (>= 1 (+ x10c1 x8c1)))
(assert (>= 1 (+ x10c1 x7c1)))
(assert (>= 1 (+ x10c1 x6c1)))
(assert (>= 1 (+ x10c1 x5c1)))
(assert (>= 1 (+ x10c1 x4c1)))
(assert (>= 1 (+ x10c1 x3c1)))
(assert (>= 1 (+ x10c1 x2c1)))
(assert (>= 1 (+ x10c1 x1c1)))
(assert (>= 1 (+ x10c1 x0c1)))
(assert (>= 1 (+ x10c2 x9c2)))
(assert (>= 1 (+ x10c2 x8c2)))
(assert (>= 1 (+ x10c2 x7c2)))
(assert (>= 1 (+ x10c2 x6c2)))
(assert (>= 1 (+ x10c2 x5c2)))
(assert (>= 1 (+ x10c2 x4c2)))
(assert (>= 1 (+ x10c2 x3c2)))
(assert (>= 1 (+ x10c2 x2c2)))
(assert (>= 1 (+ x10c2 x1c2)))
(assert (>= 1 (+ x10c2 x0c2)))
(assert (>= 1 (+ x10c3 x9c3)))
(assert (>= 1 (+ x10c3 x8c3)))
(assert (>= 1 (+ x10c3 x7c3)))
(assert (>= 1 (+ x10c3 x6c3)))
(assert (>= 1 (+ x10c3 x5c3)))
(assert (>= 1 (+ x10c3 x4c3)))
(assert (>= 1 (+ x10c3 x3c3)))
(assert (>= 1 (+ x10c3 x2c3)))
(assert (>= 1 (+ x10c3 x1c3)))
(assert (>= 1 (+ x10c3 x0c3)))
(assert (>= 1 (+ x10c4 x9c4)))
(assert (>= 1 (+ x10c4 x8c4)))
(assert (>= 1 (+ x10c4 x7c4)))
(assert (>= 1 (+ x10c4 x6c4)))
(assert (>= 1 (+ x10c4 x5c4)))
(assert (>= 1 (+ x10c4 x4c4)))
(assert (>= 1 (+ x10c4 x3c4)))
(assert (>= 1 (+ x10c4 x2c4)))
(assert (>= 1 (+ x10c4 x1c4)))
(assert (>= 1 (+ x10c4 x0c4)))
(assert (>= 2 (+ x10c5 x9c5 x8c5)))
(assert (>= 2 (+ x10c5 x8c5 x6c5)))
(assert (>= 2 (+ x10c5 x7c5 x4c5)))
(assert (>= 2 (+ x10c5 x6c5 x2c5)))
(assert (>= 2 (+ x10c5 x5c5 x0c5)))
